==> MAXTIME              = 3600
==> OUTPUTLOG            = 1
==> HEURSEARCHTREESELECT = 5
FICO Xpress v8.5.9, solve started 23:45:24, Jun 8, 2019
Maximizing MILP Seating model
Original problem has:
       230 rows          300 cols         7440 elements       300 globals
Presolved problem has:
       103 rows          204 cols         2431 elements       198 globals
LP relaxation tightened
Will try to keep branch and bound tree memory usage below 7.2GB
 *** Heuristic solution found:    22.000000      Time: 0 ***
Starting concurrent solve with dual

 Concurrent-Solve,   0s
            Dual        
    objective   dual inf
 D  102.00000   .0000000
------- optimal --------
Concurrent statistics:
      Dual: 34 simplex iterations, 0.00s
Optimal solution found
 
   Its         Obj Value      S   Ninf  Nneg   Sum Dual Inf  Time
    34        102.000000      D      0     0        .000000     0
Dual solved problem
  34 simplex iterations in 0s

Final objective                         : 1.020000000000000e+02
  Max primal violation      (abs / rel) : 1.110e-16 / 9.869e-17
  Max dual violation        (abs / rel) :       0.0 /       0.0
  Max complementarity viol. (abs / rel) :       0.0 /       0.0
All values within tolerances

Starting root cutting & heuristics
 
 Its Type    BestSoln    BestBound   Sols    Add    Del     Gap     GInf   Time
   1  K     22.000000   102.000000      1     99      0   78.43%      29      0
   2  K     22.000000   102.000000      1    111     81   78.43%      43      0
   3  K     22.000000   102.000000      1     92    101   78.43%      48      0
b           28.000000   102.000000      2                 72.55%       0      0
   4  K     28.000000   102.000000      2     87     94   72.55%      35      0
   5  K     28.000000   102.000000      2    100     83   72.55%      49      0
   6  K     28.000000   102.000000      2     93     97   72.55%      47      0
   7  K     28.000000   102.000000      2     89     88   72.55%      58      0
b           35.000000   102.000000      3                 65.69%       0      0
   8  K     35.000000   102.000000      3     81     91   65.69%      37      0
   9  K     35.000000   102.000000      3     95     87   65.69%      48      0
  10  K     35.000000   102.000000      3     97     89   65.69%      58      0
  11  K     35.000000   102.000000      3     83     86   65.69%      67      0
  12  K     35.000000   102.000000      3     93     82   65.69%      72      0
  13  K     35.000000   102.000000      3     87     85   65.69%      76      0
  14  K     35.000000   102.000000      3      2     83   65.69%      39      0
  15  K     35.000000   102.000000      3      1      7   65.69%      39      0
  16  K     35.000000   102.000000      3      1     13   65.69%      39      0
  17  K     35.000000   102.000000      3     96      8   65.69%      58      0
  18  K     35.000000   102.000000      3      2     91   65.69%      39      0
b           47.000000   102.000000      4                 53.92%       0      0
  19  K     47.000000   102.000000      4     93     14   53.92%      52      0
  20  K     47.000000   102.000000      4     99    150   53.92%      59      0
  21  G     47.000000   102.000000      4     39     31   53.92%      41      0
  22  G     47.000000   102.000000      4     70    110   53.92%      55      0
Heuristic search started
Heuristic search stopped
 
Cuts in the matrix         : 39
Cut elements in the matrix : 1106
 
Starting tree search.
Deterministic mode with up to 4 running threads and up to 8 tasks.
 
    Node     BestSoln    BestBound   Sols Active  Depth     Gap     GInf   Time
       1    47.000000   102.000000      4      2      1   53.92%      45      0
       2    47.000000   102.000000      4      2      2   53.92%      57      0
       3    47.000000   102.000000      4      2      3   53.92%      45      0
       4    47.000000   102.000000      4      2      2   53.92%      35      0
       5    47.000000   102.000000      4      2      3   53.92%      48      0
       6    47.000000   102.000000      4      2      4   53.92%      46      0
       7    47.000000   102.000000      4      5      3   53.92%      47      0
       8    47.000000   102.000000      4      5      4   53.92%      48      0
       9    47.000000   102.000000      4      5      4   53.92%      27      0
      10    47.000000   102.000000      4      8      5   53.92%      38      0
      24    47.000000   102.000000      4     17     11   53.92%      53      0
      36    47.000000   102.000000      4     17     16   53.92%      38      1
      48    47.000000   102.000000      4     25     18   53.92%      21      1
      59    47.000000   102.000000      4     25     16   53.92%      34      1
      72    47.000000   102.000000      4     25     13   53.92%      42      1
      92    47.000000   102.000000      4     25     19   53.92%      22      1
     106    47.000000   102.000000      4     42     11   53.92%      56      1
     212    47.000000   102.000000      4     59     16   53.92%      42      1
     314    47.000000   102.000000      4     59     22   53.92%      37      1
B&B tree size: 1.5MB total
 
    Node     BestSoln    BestBound   Sols Active  Depth     Gap     GInf   Time
     415    47.000000   102.000000      4     59     11   53.92%      24      1
     518    47.000000   102.000000      4     86     26   53.92%      11      1
a    604    49.000000   102.000000      5    120     22   51.96%       0      1
a    607    58.000000   102.000000      6    120     24   43.14%       0      1
     627    58.000000   102.000000      6    120     26   43.14%      12      1
     743    58.000000   102.000000      6    121     23   43.14%      15      1
     848    58.000000   102.000000      6    151     23   43.14%      13      1
     952    58.000000   100.991121      6    221     16   42.57%      19      1
    1059    58.000000   100.991121      6    249     19   42.57%      47      1
    1170    58.000000   100.991121      6    279     19   42.57%      14      2
    1278    58.000000   100.991121      6    279     15   42.57%      33      2
    1393    58.000000   100.991121      6    325     14   42.57%      49      2
    1493    58.000000   100.991121      6    325     17   42.57%      21      2
    1595    58.000000   100.991121      6    347     10   42.57%      51      2
    1705    58.000000   100.991121      6    347     23   42.57%      16      2
    1805    58.000000   100.991121      6    347     16   42.57%      23      2
    1926    58.000000   100.991121      6    347     24   42.57%      15      2
    2051    58.000000   100.991121      6    347     26   42.57%      29      2
    2158    58.000000   100.991121      6    347     20   42.57%      17      2
    2263    58.000000   100.991121      6    453     17   42.57%      24      2
B&B tree size: 5.1MB total
 
    Node     BestSoln    BestBound   Sols Active  Depth     Gap     GInf   Time
    2376    58.000000   100.991121      6    453     15   42.57%      44      2
    2479    58.000000   100.991121      6    453     17   42.57%      41      3
M   2516    60.000000   100.991121      7    453     19   40.59%       0      3
    2588    60.000000   100.991121      7    453     16   40.59%      43      3
    2693    60.000000   100.991121      7    476     25   40.59%      38      3
    2805    60.000000   100.991121      7    476     23   40.59%      33      3
    2913    60.000000   100.991121      7    537     15   40.59%      38      3
    3027    60.000000   100.991121      7    537     18   40.59%      34      3
    3142    60.000000   100.991121      7    537     20   40.59%      14      3
    3252    60.000000   100.991121      7    537     18   40.59%      16      3
    3354    60.000000   100.991121      7    537     16   40.59%      45      3
    3458    60.000000   100.991121      7    537     16   40.59%      34      3
    3572    60.000000   100.991121      7    537     17   40.59%      46      4
    3687    60.000000   100.991121      7    586     18   40.59%      17      4
    3790    60.000000   100.367489      7    705     13   40.22%      51      4
    3903    60.000000   100.367489      7    705     16   40.22%      25      4
    4018    60.000000   100.367489      7    705     16   40.22%      39      4
    4124    60.000000   100.367489      7    705     22   40.22%      21      4
    4236    60.000000   100.367489      7    806     18   40.22%      44      4
    4346    60.000000   100.367489      7    806     19   40.22%      33      4
B&B tree size: 8.0MB total
 
    Node     BestSoln    BestBound   Sols Active  Depth     Gap     GInf   Time
    4452    60.000000   100.367489      7    875     15   40.22%      47      4
    4553    60.000000    99.567502      7    984     16   39.74%      61      4
    4665    60.000000    99.567502      7    984     20   39.74%      27      4
    4776    60.000000    99.567502      7    984     16   39.74%      45      4
    4881    60.000000    99.567502      7    984     19   39.74%      44      5
    4984    60.000000    99.567502      7   1045     18   39.74%      38      5
    5088    60.000000    99.567502      7   1077     20   39.74%      13      5
    5191    60.000000    99.567502      7   1077     19   39.74%      38      5
    5297    60.000000    99.567502      7   1077     26   39.74%      13      5
    5401    60.000000    99.567502      7   1077     17   39.74%      55      5
    5501    60.000000    99.567502      7   1077     18   39.74%      40      5
    5616    60.000000    99.567502      7   1092     22   39.74%      21      5
    5716    60.000000    99.567502      7   1092     12   39.74%      30      5
    5826    60.000000    99.567502      7   1092     15   39.74%      42      5
    5939    60.000000    99.567502      7   1092     16   39.74%      41      5
    6048    60.000000    99.567502      7   1200     26   39.74%      31      5
    6153    60.000000    99.567502      7   1200     18   39.74%      31      5
    6264    60.000000    99.567502      7   1246     15   39.74%      50      6
    6368    60.000000    93.461583      7   1320     20   35.80%      29      6
    6480    60.000000    93.461583      7   1393     21   35.80%      46      6
B&B tree size: 11MB total
 
    Node     BestSoln    BestBound   Sols Active  Depth     Gap     GInf   Time
    6580    60.000000    93.461583      7   1393     16   35.80%      49      6
    6688    60.000000    93.461583      7   1393     18   35.80%      24      6
    6798    60.000000    93.461583      7   1426     21   35.80%      32      6
    6900    60.000000    93.461583      7   1450     18   35.80%      37      6
    7013    60.000000    93.461583      7   1516     26   35.80%      23      6
    7126    60.000000    93.461583      7   1516     21   35.80%      21      6
    7241    60.000000    93.461583      7   1516     22   35.80%      12      6
    7355    60.000000    93.461583      7   1516     21   35.80%      18      6
    7458    60.000000    93.461583      7   1519     15   35.80%      39      7
    7561    60.000000    93.461583      7   1519     16   35.80%      41      7
    7661    60.000000    93.461583      7   1574     18   35.80%      14      7
    7768    60.000000    93.461583      7   1587     18   35.80%      47      7
    7870    60.000000    93.461583      7   1587     24   35.80%      28      7
    7977    60.000000    93.461583      7   1655     17   35.80%      61      7
    8085    60.000000    93.461583      7   1655     24   35.80%      29      7
    8187    60.000000    93.461583      7   1655     16   35.80%      44      7
    8300    60.000000    93.461583      7   1655     20   35.80%      23      7
    8407    60.000000    93.461583      7   1712     16   35.80%      39      7
    8514    60.000000    93.461583      7   1712     23   35.80%      21      7
    8614    60.000000    93.461583      7   1712     21   35.80%      44      7
B&B tree size: 15MB total
 
    Node     BestSoln    BestBound   Sols Active  Depth     Gap     GInf   Time
    8714    60.000000    93.461583      7   1709     16   35.80%      30      8
    8821    60.000000    88.735537      7   1813     22   32.38%      19      8
    8923    60.000000    88.735537      7   1813     16   32.38%      41      8
    9024    60.000000    88.735537      7   1818     17   32.38%      46      8
    9137    60.000000    88.735537      7   1818     20   32.38%      36      8
    9243    60.000000    88.735537      7   1828     19   32.38%      41      8
    9345    60.000000    88.735537      7   1828     13   32.38%      29      8
    9452    60.000000    88.735537      7   1828     21   32.38%      41      8
    9553    60.000000    88.735537      7   1828     22   32.38%      43      8
    9653    60.000000    88.735537      7   1828     16   32.38%      46      8
    9773    60.000000    88.735537      7   1828     22   32.38%      34      8
    9879    60.000000    88.735537      7   1828     24   32.38%      20      8
    9994    60.000000    88.735537      7   1878     19   32.38%       5      9
   10099    60.000000    88.735537      7   1878     10   32.38%      32      9
   11115    60.000000    82.737476      7   2067     22   27.48%      26      9
   12115    60.000000    82.000000      7   2185     16   26.83%      35     10
   13117    60.000000    81.944168      7   2256     24   26.78%      31     11
   14133    60.000000    81.944168      7   2289     23   26.78%      36     12
   15140    60.000000    79.658921      7   2472     14   24.68%      58     12
   16156    60.000000    78.775178      7   2493     24   23.83%      21     13
B&B tree size: 23MB total
 
    Node     BestSoln    BestBound   Sols Active  Depth     Gap     GInf   Time
   17172    60.000000    78.019338      7   2519     22   23.10%      42     14
   18179    60.000000    77.161239      7   2511     16   22.24%      18     15
   19185    60.000000    77.000000      7   2536     18   22.08%      26     15
   20186    60.000000    76.007857      7   2494     17   21.06%      33     16
   21195    60.000000    75.525157      7   2488     26   20.56%      22     17
   22201    60.000000    74.490779      7   2442     17   19.45%      49     17
   23203    60.000000    74.000000      7   2466     18   18.92%      16     18
   24210    60.000000    74.000000      7   2438     18   18.92%      40     18
   25228    60.000000    73.098472      7   2381     25   17.92%      25     19
   26242    60.000000    73.000000      7   2365     32   17.81%      12     20
   27242    60.000000    72.070360      7   2291     24   16.75%      29     20
   28244    60.000000    71.502459      7   2198     16   16.09%      23     21
   29244    60.000000    71.004147      7   2073     15   15.50%      41     21
   30254    60.000000    70.026073      7   1921     24   14.32%      24     22
   31267    60.000000    70.000000      7   1824     21   14.29%      29     22
   32267    60.000000    69.000000      7   1682     26   13.04%      10     23
   33272    60.000000    68.013829      7   1418     25   11.78%      13     24
   34279    60.000000    67.000000      7   1190     25   10.45%      46     24
   35288    60.000000    67.000000      7    856     24   10.45%      30     25
   36288    60.000000    64.000000      7    380     17    6.25%      25     25
 *** Search completed ***     Time:    25 Nodes:      37041
Number of integer feasible solutions found is 7
Best integer solution found is    60.000000
Best bound is    60.000000
Uncrunching matrix
